277 278 279 282 281 280 287 286 285 284 283 334 335 336 337 338 339 333 332 331 330 340 341 344 343 342 366 367 365 368 369 370 327 328 329 326 325 324 323 322 373 372 371 396 395 394 393 391 392 390 389 388 387 385 408 405 404 406 407 397 398 399 400 401 402 403 409 384 386 382 383 410 411 412 356 355 353 354 357 358 359 360 361 362 363 364 346 345 347 348 349 350 351 352 414 415 416 413 417 418 419 420 421 422 423 424 425 426 427 428 429 430 432 433 434 435 436 437 438 454 439 440 441 450 449 448 447 446 442 443 444 445 431 381 380 379 378 377 376 375 374 315 314 316 321 320 319 318 317 313 312 311 310 309 308 505 307 305 306 304 303 301 302 508 507 506 504 503 502 451 501 498 500 499 453 452 461 462 463 460 459 458 457 456 455 3 2 1 4 0 5 6 572 573 571 570 569 568 20 19 18 17 8 7 9 10 11 16 15 14 13 12 23 22 21 24 25 26 27 28 29 31 30 32 33 34 35 36 37 38 40 41 39 42 43 44 47 48 49 54 53 55 56 83 84 51 52 50 46 45 555 91 92 93 554 553 552 556 557 558 559 560 561 562 563 565 566 564 549 548 550 551 101 102 100 99 98 96 95 97 94 89 90 85 86 87 88 78 79 80 81 82 57 58 59 60 61 63 62 64 76 77 75 74 73 119 118 120 121 122 123 71 72 65 66 67 68 70 69 124 125 126 127 128 129 130 131 132 133 134 135 136 137 138 139 140 141 151 150 149 152 148 147 142 143 144 146 145 158 157 153 156 159 155 154 164 165 203 204 202 208 207 206 205 209 210 211 212 213 214 215 216 217 223 224 222 221 220 218 219 193 194 195 196 197 198 199 200 201 166 167 163 162 160 161 113 112 111 110 114 115 116 117 106 105 104 103 547 546 545 544 543 541 542 107 109 108 173 174 175 172 171 170 168 169 180 181 179 182 183 184 185 186 188 187 178 177 176 540 538 539 537 536 535 534 487 486 485 484 483 482 481 480 479 478 477 476 475 567 474 473 472 471 470 469 468 467 466 465 464 496 497 519 518 495 494 524 523 522 521 520 517 516 515 514 513 512 511 510 509 237 240 236 235 234 233 530 529 528 527 526 525 493 492 491 490 489 531 532 488 533 231 230 229 228 227 189 190 192 191 226 225 232 238 239 246 247 245 244 243 242 241 248 249 250 251 252 254 253 255 256 257 300 299 258 259 260 261 262 263 264 265 266 298 297 296 295 294 293 270 268 267 271 269 272 273 274 275 292 291 290 289 288 276